Route #1: 67 34 52 54 13 27 45 29 48
Route #2: 30 2 74 28 61 22 62 73 33 63
Route #3: 16 49 24 23 56 41 64 42 43 1
Route #4: 57 15 5 37 20 70 60 71 69 36 47 21
Route #5: 46 8 35 53 11 65 38 10
Route #6: 58 72 39 9 25 55 18 50 32 44 3
Route #7: 7 19 14 59 66 31 26
Route #8: 75 4 68 6 51 17 40 12
Cost 800
